167 189 65 199 130 145 125 28 43 174 11 64 160 9 63 163 22 67 139 8 88 100 118 168 90 26 124 116 105 181 161 58 29 148 140 101 75 45 135 123 121 85 20 110 103 143 16 109 34 192 56 69 128 197 150 183 155 71 66 164 76 178 180 137 79 162 153 133 24 126 132 95 114 77 82 44 173 73 185 187 50 17 136 84 141 39 108 70 19 142 87 152 134 91 169 86 113 158 97 127 117 195 146 99 12 184 18 89 182 31 14 94 52 81 188 131 170 27 30 129 13 55 83 166 36 156 111 144 149 171 2 41 104 46 175 194 74 61 93 157 37 10 4 5 35 112 32 38 147 176 57 179 23 122 106 6 190 92 54 196 7 68 80 53 33 60 3 138 177 47 78 59 159 0 193 120 72 154 48 51 165 62 96 25 186 15 40 42 151 21 98 172 49 102 1 198 115 107 191 119 

